26 319
66 260
2 102
48 227
38 103
63 121
56 221
18 285
54 133
10 284
61 129
17 302
44 131
8 287
55 176
35 132
11 268
25 170
5 135
40 278
42 308
46 334
41 290
9 303
4 124
31 110
52 130
45 333
33 351
57 141
37 269
58 172
14 313
1 245
16 318
20 105
19 223
47 175
43 115
27 273
15 265
24 138
36 140
22 116
28 289
32 335
60 108
13 297
49 305
21 119
62 142
39 106
7 271
29 127
51 111
23 128
30 136
3 113
6 168
50 367
64 240
34 112
12 316
65 244
59 167